BAYES
3
2 2 2 
6
1 0
1 1
1 2
2 0 1 
2 1 2
3 0 1 2

2
 0.998 0.002

2
 0.999 0.001

2
 0.997 0.003
 
4
 0.95 0.05 0.1 0.9
 
4
 0.95 0.05 0.1 0.9
 
8
 0.999 0.71 0.06 0.05 0.001 0.29 0.94 0.95
  